(declare-fun b16 () (_ FloatingPoint 8 24))
(declare-fun b22 () (_ FloatingPoint 8 24))
(declare-fun b40 () (_ FloatingPoint 8 24))
(declare-fun b34 () (_ FloatingPoint 8 24))
(declare-fun b67 () (_ FloatingPoint 8 24))
(declare-fun b25 () (_ FloatingPoint 8 24))
(declare-fun b55 () (_ FloatingPoint 8 24))
(declare-fun b46 () (_ FloatingPoint 8 24))
(declare-fun b119 () (_ FloatingPoint 8 24))
(declare-fun b31 () (_ FloatingPoint 8 24))
(declare-fun b61 () (_ FloatingPoint 8 24))
(declare-fun b64 () (_ FloatingPoint 8 24))
(declare-fun b43 () (_ FloatingPoint 8 24))
(declare-fun b11 () (_ FloatingPoint 8 24))
(declare-fun b28 () (_ FloatingPoint 8 24))
(declare-fun b52 () (_ FloatingPoint 8 24))
(declare-fun b58 () (_ FloatingPoint 8 24))
(declare-fun b13 () (_ FloatingPoint 8 24))
(declare-fun b19 () (_ FloatingPoint 8 24))
(declare-fun b49 () (_ FloatingPoint 8 24))
(declare-fun b37 () (_ FloatingPoint 8 24))
(declare-fun b71 () (_ FloatingPoint 11 53))
(declare-fun b122 () (_ FloatingPoint 8 24))
(assert (let ((.def_131 (fp.lt b67 b122)))
(let ((.def_129 (fp.lt b119 b67)))
(let ((.def_127 (fp.lt b64 b122)))
(let ((.def_125 (fp.lt b119 b64)))
(let ((.def_123 (fp.lt b61 b122)))
(let ((.def_121 (fp.lt b119 b61)))
(let ((.def_119 (fp.lt b58 b122)))
(let ((.def_117 (fp.lt b119 b58)))
(let ((.def_115 (fp.lt b55 b122)))
(let ((.def_113 (fp.lt b119 b55)))
(let ((.def_111 (fp.lt b52 b122)))
(let ((.def_109 (fp.lt b119 b52)))
(let ((.def_107 (fp.lt b49 b122)))
(let ((.def_105 (fp.lt b119 b49)))
(let ((.def_103 (fp.lt b46 b122)))
(let ((.def_101 (fp.lt b119 b46)))
(let ((.def_99 (fp.lt b43 b122)))
(let ((.def_97 (fp.lt b119 b43)))
(let ((.def_95 (fp.lt b40 b122)))
(let ((.def_93 (fp.lt b119 b40)))
(let ((.def_91 (fp.lt b37 b122)))
(let ((.def_89 (fp.lt b119 b37)))
(let ((.def_87 (fp.lt b34 b122)))
(let ((.def_85 (fp.lt b119 b34)))
(let ((.def_83 (fp.lt b31 b122)))
(let ((.def_81 (fp.lt b119 b31)))
(let ((.def_79 (fp.lt b28 b122)))
(let ((.def_77 (fp.lt b119 b28)))
(let ((.def_75 (fp.lt b25 b122)))
(let ((.def_73 (fp.lt b119 b25)))
(let ((.def_71 (fp.lt b22 b122)))
(let ((.def_69 (fp.lt b119 b22)))
(let ((.def_67 (fp.lt b19 b122)))
(let ((.def_65 (fp.lt b119 b19)))
(let ((.def_63 (fp.lt b16 b122)))
(let ((.def_61 (fp.lt b119 b16)))
(let ((.def_59 (fp.lt b13 b122)))
(let ((.def_57 (fp.lt b119 b13)))
(let ((.def_55 (fp.lt b11 b122)))
(let ((.def_13 (fp.mul RNE b11 b13)))
(let ((.def_15 (fp.mul RNE .def_13 b16)))
(let ((.def_17 (fp.mul RNE .def_15 b19)))
(let ((.def_19 (fp.mul RNE .def_17 b22)))
(let ((.def_21 (fp.mul RNE .def_19 b25)))
(let ((.def_23 (fp.mul RNE .def_21 b28)))
(let ((.def_25 (fp.mul RNE .def_23 b31)))
(let ((.def_27 (fp.mul RNE .def_25 b34)))
(let ((.def_29 (fp.mul RNE .def_27 b37)))
(let ((.def_31 (fp.mul RNE .def_29 b40)))
(let ((.def_33 (fp.mul RNE .def_31 b43)))
(let ((.def_35 (fp.mul RNE .def_33 b46)))
(let ((.def_37 (fp.mul RNE .def_35 b49)))
(let ((.def_39 (fp.mul RNE .def_37 b52)))
(let ((.def_41 (fp.mul RNE .def_39 b55)))
(let ((.def_43 (fp.mul RNE .def_41 b58)))
(let ((.def_45 (fp.mul RNE .def_43 b61)))
(let ((.def_47 (fp.mul RNE .def_45 b64)))
(let ((.def_49 (fp.mul RNE .def_47 b67)))
(let ((.def_50 ((_ to_fp 11 53) RNE .def_49)))
(let ((.def_52 (fp.lt b71 .def_50)))
(let ((.def_11 (fp.lt b119 b11)))
(let ((.def_53 (and .def_11 .def_52)))
(let ((.def_56 (and .def_53 .def_55)))
(let ((.def_58 (and .def_56 .def_57)))
(let ((.def_60 (and .def_58 .def_59)))
(let ((.def_62 (and .def_60 .def_61)))
(let ((.def_64 (and .def_62 .def_63)))
(let ((.def_66 (and .def_64 .def_65)))
(let ((.def_68 (and .def_66 .def_67)))
(let ((.def_70 (and .def_68 .def_69)))
(let ((.def_72 (and .def_70 .def_71)))
(let ((.def_74 (and .def_72 .def_73)))
(let ((.def_76 (and .def_74 .def_75)))
(let ((.def_78 (and .def_76 .def_77)))
(let ((.def_80 (and .def_78 .def_79)))
(let ((.def_82 (and .def_80 .def_81)))
(let ((.def_84 (and .def_82 .def_83)))
(let ((.def_86 (and .def_84 .def_85)))
(let ((.def_88 (and .def_86 .def_87)))
(let ((.def_90 (and .def_88 .def_89)))
(let ((.def_92 (and .def_90 .def_91)))
(let ((.def_94 (and .def_92 .def_93)))
(let ((.def_96 (and .def_94 .def_95)))
(let ((.def_98 (and .def_96 .def_97)))
(let ((.def_100 (and .def_98 .def_99)))
(let ((.def_102 (and .def_100 .def_101)))
(let ((.def_104 (and .def_102 .def_103)))
(let ((.def_106 (and .def_104 .def_105)))
(let ((.def_108 (and .def_106 .def_107)))
(let ((.def_110 (and .def_108 .def_109)))
(let ((.def_112 (and .def_110 .def_111)))
(let ((.def_114 (and .def_112 .def_113)))
(let ((.def_116 (and .def_114 .def_115)))
(let ((.def_118 (and .def_116 .def_117)))
(let ((.def_120 (and .def_118 .def_119)))
(let ((.def_122 (and .def_120 .def_121)))
(let ((.def_124 (and .def_122 .def_123)))
(let ((.def_126 (and .def_124 .def_125)))
(let ((.def_128 (and .def_126 .def_127)))
(let ((.def_130 (and .def_128 .def_129)))
(let ((.def_132 (and .def_130 .def_131)))
.def_132))))))))))))))))))))))))))))))))))))))))))))))))))))))))))))))))))))))))))))))))))))))))))))))))))))))
(check-sat)
